Gurobi Optimizer version 9.1.2 build v9.1.2rc0 (linux64)
Thread count: 36 physical cores, 72 logical processors, using up to 32 threads
Optimize a model with 12 rows, 57 columns and 590 nonzeros
Model fingerprint: 0xf32eec78
Model has 47 quadratic constraints
Coefficient statistics:
  Matrix range     [2e-05, 3e+00]
  QMatrix range    [1e+00, 1e+00]
  QLMatrix range   [1e+00, 1e+00]
  Objective range  [8e-03, 7e-01]
  Bounds range     [1e+00, 1e+00]
  RHS range        [1e+00, 1e+00]
Presolve removed 9 rows and 0 columns

Continuous model is non-convex -- solving as a MIP.

Presolve removed 9 rows and 0 columns
Presolve time: 0.00s
Presolved: 189 rows, 57 columns, 443 nonzeros
Presolved model has 47 bilinear constraint(s)
Variable types: 57 continuous, 0 integer (0 binary)

Root relaxation: objective -1.743721e+00, 44 iterations, 0.00 seconds

    Nodes    |    Current Node    |     Objective Bounds      |     Work
 Expl Unexpl |  Obj  Depth IntInf | Incumbent    BestBd   Gap | It/Node Time

     0     0   -1.74372    0   38          -   -1.74372      -     -    0s
H    0     0                       0.6147548   -1.74372   384%     -    0s
     0     0   -1.64739    0    1    0.61475   -1.64739   368%     -    0s
H    0     0                      -1.6450460   -1.64739  0.14%     -    0s
     0     0     cutoff    0        -1.64505   -1.64505  0.00%     -    0s

Cutting planes:
  RLT: 25
  BQP: 3

Explored 1 nodes (76 simplex iterations) in 0.01 seconds
Thread count was 32 (of 72 available processors)

Solution count 2: -1.64505 0.614755 
No other solutions better than -1.64505

Optimal solution found (tolerance 1.00e-04)
Best objective -1.645045978473e+00, best bound -1.645045978473e+00, gap 0.0000%

User-callback calls 78, time in user-callback 0.00 sec
Gurobi Optimizer version 9.1.2 build v9.1.2rc0 (linux64)
Thread count: 36 physical cores, 72 logical processors, using up to 32 threads
Optimize a model with 60 rows, 300 columns and 15500 nonzeros
Model fingerprint: 0xcaf81c8b
Model has 250 quadratic constraints
Coefficient statistics:
  Matrix range     [1e-06, 4e+00]
  QMatrix range    [1e+00, 1e+00]
  QLMatrix range   [1e+00, 1e+00]
  Objective range  [3e-04, 1e+00]
  Bounds range     [1e+00, 1e+00]
  RHS range        [1e+00, 1e+00]
Presolve removed 10 rows and 0 columns

Continuous model is non-convex -- solving as a MIP.

Presolve removed 10 rows and 0 columns
Presolve time: 0.01s
Presolved: 1050 rows, 300 columns, 14463 nonzeros
Presolved model has 250 bilinear constraint(s)
Variable types: 300 continuous, 0 integer (0 binary)

Root relaxation: objective -2.087840e+01, 386 iterations, 0.02 seconds

    Nodes    |    Current Node    |     Objective Bounds      |     Work
 Expl Unexpl |  Obj  Depth IntInf | Incumbent    BestBd   Gap | It/Node Time

     0     0  -20.87840    0  208          -  -20.87840      -     -    0s
H    0     0                      -2.7406507  -20.87840   662%     -    0s
     0     0  -18.49577    0  200   -2.74065  -18.49577   575%     -    0s
     0     0  -17.94825    0  218   -2.74065  -17.94825   555%     -    0s
     0     0  -17.93850    0  202   -2.74065  -17.93850   555%     -    0s
     0     0  -17.91088    0  162   -2.74065  -17.91088   554%     -    0s
H    0     0                      -8.7531002  -17.91088   105%     -    0s
     0     0  -17.90490    0  162   -8.75310  -17.90490   105%     -    0s
     0     0  -17.90044    0  148   -8.75310  -17.90044   105%     -    0s
     0     0  -17.90027    0  148   -8.75310  -17.90027   105%     -    0s
     0     0  -17.90027    0  148   -8.75310  -17.90027   105%     -    0s
H    0     0                     -12.5910605  -17.90027  42.2%     -    0s
H    0     0                     -13.2494934  -17.90027  35.1%     -    0s
H    0     0                     -13.4693971  -17.90027  32.9%     -    0s
     0     2  -17.90027    0  148  -13.46940  -17.90027  32.9%     -    0s
* 1930  1744              88     -13.5009303  -16.74573  24.0%  60.4    1s
* 1931  1744              88     -13.5009308  -16.74573  24.0%  60.3    1s
* 1986  1871             124     -14.0591893  -16.74573  19.1%  59.5    2s
* 1987  1871             124     -14.0591904  -16.74573  19.1%  59.5    2s
* 1988  1871             123     -14.0591915  -16.74573  19.1%  59.4    2s
* 2251  1865              54     -15.0638402  -16.74573  11.2%  56.7    2s
* 2256  1865              57     -15.0638480  -16.74573  11.2%  56.7    2s
* 2722  1851              48     -15.2588921  -16.63944  9.05%  56.2    2s
* 2723  1851              49     -15.2588937  -16.63944  9.05%  56.2    2s
* 4559  1018             111     -15.3713830  -16.63944  8.25%  61.6    3s
* 4667   947             110     -15.3713837  -16.63944  8.25%  61.4    3s
* 5129   924              59     -15.3714537  -16.63944  8.25%  61.0    4s
* 5260  1014              60     -15.3714802  -16.63944  8.25%  60.6    4s
* 5263  1014              59     -15.3715120  -16.63944  8.25%  60.6    4s
* 5506  1140              77     -15.4319991  -16.63944  7.82%  59.4    4s
* 5916  1243              81     -15.4320011  -16.63944  7.82%  58.7    4s
* 6350  1517             118     -15.4434011  -16.63944  7.74%  58.0    4s
* 6500  1517              89     -15.4803457  -16.63944  7.49%  57.8    4s
* 6639  1561              79     -15.5060103  -16.63944  7.31%  57.6    4s
* 6640  1561              78     -15.5060113  -16.63944  7.31%  57.6    4s
  7233  1688  -15.82035   25  210  -15.50601  -16.63944  7.31%  57.5    5s
* 7266  1688              79     -15.5271599  -16.63944  7.16%  57.5    5s
*15243  1711              99     -15.5271661  -16.05301  3.39%  61.6    8s
*15247  1711             101     -15.5271672  -16.05301  3.39%  61.6    8s
*15250  1711              99     -15.5271691  -16.05301  3.39%  61.6    8s
*15791  1806              71     -15.6127261  -16.03841  2.73%  61.5    8s
*17346  1722              62     -15.6128053  -15.91069  1.91%  60.9    9s
*17454  1722              89     -15.6128991  -15.89044  1.78%  60.7    9s
*17456  1722              90     -15.6129141  -15.89044  1.78%  60.7    9s
*17458  1722              91     -15.6129162  -15.89044  1.78%  60.7    9s
*17459  1722              91     -15.6129162  -15.89044  1.78%  60.7    9s
*17462  1722              90     -15.6130675  -15.89044  1.78%  60.7    9s
*17463  1722              90     -15.6130676  -15.89044  1.78%  60.7    9s
*18182  1983              71     -15.6133355  -15.83480  1.42%  60.2    9s
*18509  1983              94     -15.6178711  -15.81383  1.25%  59.6    9s
 19998  1950     cutoff   33       -15.61787  -15.75829  0.90%  58.2   10s
*20621  1950              62     -15.6178933  -15.74989  0.85%  57.6   10s
*20623  1950              62     -15.6178959  -15.74989  0.85%  57.6   10s
*20989  2202              80     -15.6186089  -15.74740  0.82%  57.3   10s
*20992  2202              82     -15.6186243  -15.74740  0.82%  57.3   10s
*21116  2202              65     -15.6202122  -15.73247  0.72%  57.1   10s
*21117  2202              65     -15.6202130  -15.73247  0.72%  57.1   10s
*21217  2202              63     -15.6233317  -15.72982  0.68%  57.0   10s
*21219  2202              63     -15.6233317  -15.72982  0.68%  57.0   10s
*21227  2202              65     -15.6233326  -15.72982  0.68%  57.0   10s
*21734  2202              69     -15.6301947  -15.72518  0.61%  56.2   10s
*22665  2087              68     -15.6304432  -15.72023  0.57%  55.0   10s
*23146  2087              73     -15.6307814  -15.72023  0.57%  54.5   10s
*23148  2087              72     -15.6308630  -15.72023  0.57%  54.5   10s
*23198  2087              59     -15.6316038  -15.72023  0.57%  54.4   10s
*23204  2087              60     -15.6316070  -15.72023  0.57%  54.4   10s
*23205  2087              60     -15.6316074  -15.72023  0.57%  54.4   10s
*23324  2087              56     -15.6399219  -15.72023  0.51%  54.3   10s
*23524  1977              74     -15.6445637  -15.70638  0.40%  54.0   10s
*24839  2011              67     -15.6449148  -15.69576  0.32%  52.5   11s
*24844  2011              71     -15.6449516  -15.69576  0.32%  52.5   11s
*24854  2011              78     -15.6449549  -15.69576  0.32%  52.5   11s
*24857  2011              77     -15.6449558  -15.69576  0.32%  52.5   11s
*25247  2011              84     -15.6453308  -15.69276  0.30%  52.0   11s
*25249  2011              85     -15.6453386  -15.69276  0.30%  52.0   11s
*25258  2011              85     -15.6453389  -15.69276  0.30%  52.0   11s
*26371  2476              71     -15.6454650  -15.68021  0.22%  50.8   11s
*26374  2476              71     -15.6455040  -15.68021  0.22%  50.8   11s
*26671  2476              87     -15.6528703  -15.68021  0.17%  50.4   11s
*26673  2476              88     -15.6528706  -15.68021  0.17%  50.4   11s
*27039  2476              65     -15.6598864  -15.68021  0.13%  50.0   11s
*28091   411              64     -15.6601269  -15.67581  0.10%  48.6   11s
*28093   411              63     -15.6601270  -15.67581  0.10%  48.6   11s
*28097   411              67     -15.6601272  -15.67581  0.10%  48.6   11s
*30041  1036              65     -15.6602357  -15.66811  0.05%  45.9   11s
*30133  1036              96     -15.6604266  -15.66701  0.04%  45.8   11s
*30134  1036              96     -15.6604294  -15.66701  0.04%  45.8   11s
*30135  1036              95     -15.6604327  -15.66701  0.04%  45.8   11s
*30136  1036              94     -15.6604362  -15.66701  0.04%  45.8   11s
*30141  1036              97     -15.6604630  -15.66701  0.04%  45.8   11s
*30142  1036              97     -15.6604657  -15.66701  0.04%  45.8   11s
*30143  1036              96     -15.6604684  -15.66701  0.04%  45.8   11s
*30144  1036              95     -15.6604713  -15.66701  0.04%  45.8   11s
*30275  1036              84     -15.6612258  -15.66701  0.04%  45.6   11s
*30276  1036              84     -15.6612387  -15.66701  0.04%  45.6   11s
*30695  1036              62     -15.6612692  -15.66701  0.04%  45.0   11s
*30697  1036              63     -15.6612698  -15.66701  0.04%  45.0   11s
*32254  1354              78     -15.6612748  -15.66438  0.02%  43.1   12s
*32295  1354              76     -15.6612750  -15.66438  0.02%  43.0   12s
*32301  1354              73     -15.6612921  -15.66438  0.02%  43.0   12s
*32354  1354              72     -15.6613133  -15.66410  0.02%  42.9   12s
*32358  1354              73     -15.6613136  -15.66410  0.02%  42.9   12s
*32361  1354              73     -15.6613137  -15.66410  0.02%  42.9   12s
*32373  1354              69     -15.6613147  -15.66410  0.02%  42.9   12s
*32374  1354              69     -15.6613150  -15.66410  0.02%  42.9   12s
*32377  1354              68     -15.6613153  -15.66410  0.02%  42.9   12s
*32420  1354              58     -15.6614989  -15.66373  0.01%  42.9   12s
*32422  1354              59     -15.6615033  -15.66373  0.01%  42.9   12s
*33546  1354              74     -15.6615330  -15.66227  0.00%  41.5   12s
*33550  1354              75     -15.6615334  -15.66227  0.00%  41.5   12s

Explored 34186 nodes (1395959 simplex iterations) in 12.29 seconds
Thread count was 32 (of 72 available processors)

Solution count 10: -15.6615 -15.6615 -15.6615 ... -15.6613

Optimal solution found (tolerance 1.00e-04)
Best objective -1.566153203579e+01, best bound -1.566227317171e+01, gap 0.0047%

User-callback calls 70017, time in user-callback 0.01 sec



objective value: -15.661532035788353
objective bound: -15.662273171714665
x_opt: [0.0, 1.0, 1.0, 1.0, 0.01736709519028328, 1.0, 1.0, 1.0, 0.26681594788626206, 0.0, 0.0, 0.0, 0.0, 1.0, 1.0, 1.0, 0.5923564434244932, 1.0, 0.0, 0.0, 0.0, 0.9715508109656914, 1.0, 1.0, 0.18810356307343665, 0.0, 1.0, 0.0, 0.0, 0.6772409908408072, 0.0, 1.0, 0.43775913225409896, 1.0, 1.0, 1.0, 1.0, 0.4861381218924487, 1.0, 1.0, 0.411064673374715, 0.0, 0.14961243929172982, 1.0188919317567778e-13, 1.0163511584593948e-13, 0.22905451431871668, 1.0163912461219594e-13, 1.0, 1.0167160064947696e-13, 1.0000000000000977]
GUROBI solution time: 12.292947053909302

